results_rootrelaxation/bin018_050_013.srr.sol
solution status: optimal solution found
objective value:                                    0
_var362_                             0.26751027522974 	(obj:0)
_var375_                             0.11152433706501 	(obj:0)
_var501_                            0.160688403987228 	(obj:0)
_var607_                           0.0749208187419872 	(obj:0)
_var809_                           0.0177770220733814 	(obj:0)
_var865_                            0.122595440380874 	(obj:0)
_var1053_                          0.0863107601587314 	(obj:0)
_var1251_                           0.319633685431805 	(obj:0)
_var1599_                          0.0226590629810246 	(obj:0)
_var1770_                           0.192070472400711 	(obj:0)
_var2269_                           0.143966254676829 	(obj:0)
_var2618_                           0.127653134759599 	(obj:0)
_var2620_                           0.107621239224458 	(obj:0)
_var2621_                         0.00678267464231648 	(obj:0)
_var2631_                           0.247540930907243 	(obj:0)
_var2632_                          0.0408730435510797 	(obj:0)
_var2651_                           0.238717518109436 	(obj:0)
_var2663_                          0.0502866968040043 	(obj:0)
_var2668_                           0.307508894763478 	(obj:0)
_var2673_                           0.136144224586687 	(obj:0)
_var2679_                           0.252957649558519 	(obj:0)
_var2683_                            0.11022022779983 	(obj:0)
_var2687_                           0.181019268278034 	(obj:0)
_var2688_                          0.0502015587488882 	(obj:0)
_var2689_                           0.292769973863545 	(obj:0)
_var2693_                           0.169957142570103 	(obj:0)
_var2694_                          0.0521445638101797 	(obj:0)
_var2700_                           0.138017124989154 	(obj:0)
_var2702_                          0.0289788710873295 	(obj:0)
_var2706_                          0.0993313644503139 	(obj:0)
_var2710_                           0.179204951431601 	(obj:0)
_var2711_                           0.231861823816327 	(obj:0)
_var2716_                           0.011753009438572 	(obj:0)
_var2721_                           0.112953324888557 	(obj:0)
_var2722_                           0.220487954972755 	(obj:0)
_var2723_                           0.072356968134066 	(obj:0)
_var2727_                           0.211599698952873 	(obj:0)
_var2733_                          0.0843181299317286 	(obj:0)
_var2736_                           0.203605703529095 	(obj:0)
_var2740_                          0.0251664260232707 	(obj:0)
_var2741_                           0.106913188377495 	(obj:0)
_var2742_                           0.102150579883422 	(obj:0)
_var2743_                           0.127522581929594 	(obj:0)
_var2744_                           0.162256613509713 	(obj:0)
_var2745_                          0.0623513519011595 	(obj:0)
_var2746_                           0.265538904214648 	(obj:0)
_var2748_                            0.38558138257174 	(obj:0)
_var2749_                          0.0972661973362773 	(obj:0)
_var2750_                           0.123718158140318 	(obj:0)
_var2751_                          0.0524671562353313 	(obj:0)
_var2754_                           0.173293384410547 	(obj:0)
_var2756_                          0.0467152466649515 	(obj:0)
_var2757_                          0.0152855572644443 	(obj:0)
_var2759_                          0.0396262590566205 	(obj:0)
_var2760_                          0.0173303237812668 	(obj:0)
_var2762_                           0.124308497535756 	(obj:0)
_var2763_                           0.224614536623114 	(obj:0)
_var2765_                          0.0681551857543475 	(obj:0)
_var2767_                           0.222203986566671 	(obj:0)
_var2768_                           0.163625462253743 	(obj:0)
_var2771_                           0.128392807673753 	(obj:0)
_var2772_                             0.1735547504594 	(obj:0)
_var2773_                          0.0229629597871456 	(obj:0)
_var2776_                           0.180042025922664 	(obj:0)
_var2777_                           0.137190333000109 	(obj:0)
_var2778_                          0.0624921654076984 	(obj:0)
_var2779_                          0.0542570923462241 	(obj:0)
_var2781_                          0.0610760373259923 	(obj:0)
_var2782_                          0.0181579247705121 	(obj:0)
_var2786_                           0.187579093980591 	(obj:0)
_var2788_                           0.260002302446016 	(obj:0)
_var2792_                          0.0852706845593282 	(obj:0)
_var2794_                          0.0329000502691761 	(obj:0)
_var2795_                           0.183592752569003 	(obj:0)
_var2797_                           0.150323611809603 	(obj:0)
_var2801_                          0.0971166732795372 	(obj:0)
_var2803_                           0.220224420793002 	(obj:0)
_var2804_                           0.074278985248823 	(obj:0)
_var2805_                         0.00996710364727267 	(obj:0)
_var2807_                           0.106684445514023 	(obj:0)
_var2808_                           0.181576057888598 	(obj:0)
_var2809_                           0.341920513784019 	(obj:0)
_var2815_                           0.103147874999652 	(obj:0)
_var2817_                           0.131129674963919 	(obj:0)
_var2818_                          0.0593831059019064 	(obj:0)
_var2819_                           0.175791533088058 	(obj:0)
_var2822_                          0.0573633923544871 	(obj:0)
_var2823_                          0.0909548369764572 	(obj:0)
_var2824_                         0.00362873355315093 	(obj:0)
_var2825_                          0.0197109978820429 	(obj:0)
_var2827_                           0.157571732008043 	(obj:0)
_var2828_                           0.164910059613654 	(obj:0)
_var2829_                          0.0140746651097342 	(obj:0)
_var2830_                           0.124222542360383 	(obj:0)
_var2832_                           0.153568609829678 	(obj:0)
_var2833_                          0.0899264539117287 	(obj:0)
_var2834_                           0.276189180279562 	(obj:0)
_var2835_                          0.0339986814732426 	(obj:0)
_var2836_                          0.0952412519928981 	(obj:0)
_var2837_                          0.0761929216110393 	(obj:0)
_var2839_                           0.131365505872219 	(obj:0)
_var2840_                             0.1456814016387 	(obj:0)
_var2842_                          0.0615012149302948 	(obj:0)
_var2843_                           0.031448564479155 	(obj:0)
_var2844_                          0.0473669848521487 	(obj:0)
_var2847_                           0.021017336389489 	(obj:0)
_var2848_                           0.116439906791575 	(obj:0)
_var2850_                           0.037663968997789 	(obj:0)
_var2853_                           0.185795402130545 	(obj:0)
_var2855_                         0.00988144897911683 	(obj:0)
_var2857_                          0.0474194155195338 	(obj:0)
_var2858_                          0.0678931296609376 	(obj:0)
_var2861_                           0.146841157912816 	(obj:0)
_var2862_                          0.0949025497440108 	(obj:0)
_var2865_                           0.140103143556509 	(obj:0)
_var2868_                          0.0855295088644305 	(obj:0)
_var2870_                           0.008127377746262 	(obj:0)
_var2876_                           0.225518764921108 	(obj:0)
_var2877_                          0.0495093976775084 	(obj:0)
_var2879_                           0.098839843674944 	(obj:0)
_var2885_                           0.144632828061024 	(obj:0)
_var2888_                           0.248749852965911 	(obj:0)
_var2891_                          0.0902467287238299 	(obj:0)
_var2892_                            0.10512053581514 	(obj:0)
_var2894_                           0.199654068054312 	(obj:0)
_var2896_                           0.103505684451679 	(obj:0)
_var2897_                          0.0168220104492744 	(obj:0)
_var2900_                          0.0516896488793206 	(obj:0)
_var2901_                           0.147524571472118 	(obj:0)
_var2902_                            0.18393789308805 	(obj:0)
_var2903_                          0.0467850787004893 	(obj:0)
_var2904_                          0.0298414202130983 	(obj:0)
_var2911_                          0.0143566981412603 	(obj:0)
_var2912_                          0.0147552122974076 	(obj:0)
_var2913_                           0.222898573535567 	(obj:0)
_var2915_                          0.0251821331764252 	(obj:0)
_var2916_                           0.102979897004551 	(obj:0)
_var2917_                          0.0237710175245806 	(obj:0)
_var2918_                           0.106285758289636 	(obj:0)
_var2920_                          0.0731822456602938 	(obj:0)
_var2922_                          0.0939856339998785 	(obj:0)
_var2923_                          0.0126856229330276 	(obj:0)
_var2924_                           0.111962368836108 	(obj:0)
_var2925_                          0.0239868734694549 	(obj:0)
_var2926_                          0.0766137236578369 	(obj:0)
_var2928_                          0.0347826603402358 	(obj:0)
_var2929_                          0.0441357728371371 	(obj:0)
_var2934_                          0.0163784543770715 	(obj:0)
_var2935_                          0.0964180574281193 	(obj:0)
_var2936_                         0.00639389866474946 	(obj:0)
_var2939_                          0.0506726362687038 	(obj:0)
_var2940_                          0.0380321951909704 	(obj:0)
