results_rootrelaxation/bin018_050_013.srr.log
SCIP version 8.0.3.5 [precision: 8 byte] [memory: block] [mode: optimized] [LP solver: Soplex 6.0.1.3] [GitHash: 438792519e]
Copyright (c) 2002-2023 Zuse Institute Berlin (ZIB)

External libraries: 
  Readline 8.1         GNU library for command line editing (gnu.org/s/readline)
  Soplex 6.0.1.3       Linear Programming Solver developed at Zuse Institute Berlin (soplex.zib.de) [GitHash: 713be0fe]
  CppAD 20180000.0     Algorithmic Differentiation of C++ algorithms developed by B. Bell (github.com/coin-or/CppAD)
  ZLIB 1.2.11          General purpose compression library by J. Gailly and M. Adler (zlib.net)
  bliss 0.77           Computing Graph Automorphism Groups by T. Junttila and P. Kaski (www.tcs.hut.fi/Software/bliss/)

user parameter file <scip.set> not found - using default parameters

srr/relaxation = TRUE

read problem <instances/bin018_050_013.srr>
============

Original problem: 
original problem has 0 variables (0 bin, 0 int, 0 impl, 0 cont) and 170 constraints

presolving:
presolving (1 rounds: 1 fast, 1 medium, 1 exhaustive):
 0 deleted vars, 0 deleted constraints, 0 added constraints, 0 tightened bounds, 0 added holes, 0 changed sides, 0 changed coefficients
 0 implications, 0 cliques
presolved problem has 0 variables (0 bin, 0 int, 0 impl, 0 cont) and 170 constraints
    170 constraints of type <linear>
Presolving Time: 0.00

 time | node  | left  |LP iter|LP it/n|mem/heur|mdpt |vars |cons |rows |cuts |sepa|confs|strbr|  dualbound   | primalbound  |  gap   | compl. 
  0.0s|     1 |     0 |     1 |     - |   922k |   0 |   1 | 170 | 170 |   0 |  0 |   0 |   0 |      --      |      --      |    Inf | unknown
  0.2s|     1 |     0 |  1025 |     - |  7111k |   0 |1615 | 170 | 170 |   0 |  0 |   0 |   0 |      --      |      --      |    Inf | unknown
r 0.8s|     1 |     0 |  5596 |     - |simplero|   0 |2601 | 170 | 170 |   0 |  0 |   0 |   0 |      --      | 3.182795e+01 |    Inf | unknown
r 0.8s|     1 |     0 |  5660 |     - |simplero|   0 |2618 | 170 | 170 |   0 |  0 |   0 |   0 |      --      | 3.075191e+01 |    Inf | unknown
r 0.8s|     1 |     0 |  5778 |     - |simplero|   0 |2635 | 170 | 170 |   0 |  0 |   0 |   0 |      --      | 2.863273e+01 |    Inf | unknown
r 0.8s|     1 |     0 |  5843 |     - |simplero|   0 |2652 | 170 | 170 |   0 |  0 |   0 |   0 |      --      | 2.762584e+01 |    Inf | unknown
r 0.8s|     1 |     0 |  5970 |     - |simplero|   0 |2669 | 170 | 170 |   0 |  0 |   0 |   0 |      --      | 2.545238e+01 |    Inf | unknown
r 0.8s|     1 |     0 |  6122 |     - |simplero|   0 |2686 | 170 | 170 |   0 |  0 |   0 |   0 |      --      | 2.311722e+01 |    Inf | unknown
r 0.9s|     1 |     0 |  6260 |     - |simplero|   0 |2703 | 170 | 170 |   0 |  0 |   0 |   0 |      --      | 2.118300e+01 |    Inf | unknown
r 0.9s|     1 |     0 |  6441 |     - |simplero|   0 |2720 | 170 | 170 |   0 |  0 |   0 |   0 |      --      | 1.952203e+01 |    Inf | unknown
r 0.9s|     1 |     0 |  6529 |     - |simplero|   0 |2737 | 170 | 170 |   0 |  0 |   0 |   0 |      --      | 1.722087e+01 |    Inf | unknown
r 0.9s|     1 |     0 |  6611 |     - |simplero|   0 |2737 | 170 | 170 |   0 |  0 |   0 |   0 |      --      | 1.684727e+01 |    Inf | unknown
r 0.9s|     1 |     0 |  6638 |     - |simplero|   0 |2737 | 170 | 170 |   0 |  0 |   0 |   0 |      --      | 1.680296e+01 |    Inf | unknown
r 0.9s|     1 |     0 |  6639 |     - |simplero|   0 |2737 | 170 | 170 |   0 |  0 |   0 |   0 |      --      | 1.680262e+01 |    Inf | unknown
r 0.9s|     1 |     0 |  6785 |     - |simplero|   0 |2754 | 170 | 170 |   0 |  0 |   0 |   0 |      --      | 1.488885e+01 |    Inf | unknown
 time | node  | left  |LP iter|LP it/n|mem/heur|mdpt |vars |cons |rows |cuts |sepa|confs|strbr|  dualbound   | primalbound  |  gap   | compl. 
r 0.9s|     1 |     0 |  6839 |     - |simplero|   0 |2754 | 170 | 170 |   0 |  0 |   0 |   0 |      --      | 1.463689e+01 |    Inf | unknown
r 0.9s|     1 |     0 |  6855 |     - |simplero|   0 |2754 | 170 | 170 |   0 |  0 |   0 |   0 |      --      | 1.462406e+01 |    Inf | unknown
r 0.9s|     1 |     0 |  6861 |     - |simplero|   0 |2754 | 170 | 170 |   0 |  0 |   0 |   0 |      --      | 1.462163e+01 |    Inf | unknown
r 1.0s|     1 |     0 |  6960 |     - |simplero|   0 |2771 | 170 | 170 |   0 |  0 |   0 |   0 |      --      | 1.281172e+01 |    Inf | unknown
r 1.0s|     1 |     0 |  7059 |     - |simplero|   0 |2771 | 170 | 170 |   0 |  0 |   0 |   0 |      --      | 1.174222e+01 |    Inf | unknown
r 1.0s|     1 |     0 |  7110 |     - |simplero|   0 |2771 | 170 | 170 |   0 |  0 |   0 |   0 |      --      | 1.153005e+01 |    Inf | unknown
r 1.0s|     1 |     0 |  7129 |     - |simplero|   0 |2771 | 170 | 170 |   0 |  0 |   0 |   0 |      --      | 1.149521e+01 |    Inf | unknown
r 1.0s|     1 |     0 |  7135 |     - |simplero|   0 |2771 | 170 | 170 |   0 |  0 |   0 |   0 |      --      | 1.149352e+01 |    Inf | unknown
r 1.0s|     1 |     0 |  7230 |     - |simplero|   0 |2788 | 170 | 170 |   0 |  0 |   0 |   0 |      --      | 1.029830e+01 |    Inf | unknown
r 1.0s|     1 |     0 |  7324 |     - |simplero|   0 |2788 | 170 | 170 |   0 |  0 |   0 |   0 |      --      | 9.271115e+00 |    Inf | unknown
r 1.0s|     1 |     0 |  7364 |     - |simplero|   0 |2788 | 170 | 170 |   0 |  0 |   0 |   0 |      --      | 9.175735e+00 |    Inf | unknown
r 1.0s|     1 |     0 |  7367 |     - |simplero|   0 |2788 | 170 | 170 |   0 |  0 |   0 |   0 |      --      | 9.175618e+00 |    Inf | unknown
r 1.0s|     1 |     0 |  7531 |     - |simplero|   0 |2805 | 170 | 170 |   0 |  0 |   0 |   0 |      --      | 7.966791e+00 |    Inf | unknown
r 1.0s|     1 |     0 |  7575 |     - |simplero|   0 |2805 | 170 | 170 |   0 |  0 |   0 |   0 |      --      | 7.745354e+00 |    Inf | unknown
r 1.0s|     1 |     0 |  7594 |     - |simplero|   0 |2805 | 170 | 170 |   0 |  0 |   0 |   0 |      --      | 7.719482e+00 |    Inf | unknown
 time | node  | left  |LP iter|LP it/n|mem/heur|mdpt |vars |cons |rows |cuts |sepa|confs|strbr|  dualbound   | primalbound  |  gap   | compl. 
r 1.1s|     1 |     0 |  7721 |     - |simplero|   0 |2822 | 170 | 170 |   0 |  0 |   0 |   0 |      --      | 6.338986e+00 |    Inf | unknown
r 1.1s|     1 |     0 |  7769 |     - |simplero|   0 |2822 | 170 | 170 |   0 |  0 |   0 |   0 |      --      | 6.181029e+00 |    Inf | unknown
r 1.1s|     1 |     0 |  7786 |     - |simplero|   0 |2822 | 170 | 170 |   0 |  0 |   0 |   0 |      --      | 6.160693e+00 |    Inf | unknown
r 1.1s|     1 |     0 |  7788 |     - |simplero|   0 |2822 | 170 | 170 |   0 |  0 |   0 |   0 |      --      | 6.160360e+00 |    Inf | unknown
r 1.1s|     1 |     0 |  7879 |     - |simplero|   0 |2839 | 170 | 170 |   0 |  0 |   0 |   0 |      --      | 5.017025e+00 |    Inf | unknown
r 1.1s|     1 |     0 |  7949 |     - |simplero|   0 |2839 | 170 | 170 |   0 |  0 |   0 |   0 |      --      | 4.558829e+00 |    Inf | unknown
r 1.1s|     1 |     0 |  7992 |     - |simplero|   0 |2839 | 170 | 170 |   0 |  0 |   0 |   0 |      --      | 4.392069e+00 |    Inf | unknown
r 1.1s|     1 |     0 |  8003 |     - |simplero|   0 |2839 | 170 | 170 |   0 |  0 |   0 |   0 |      --      | 4.381375e+00 |    Inf | unknown
r 1.1s|     1 |     0 |  8118 |     - |simplero|   0 |2856 | 170 | 170 |   0 |  0 |   0 |   0 |      --      | 3.165800e+00 |    Inf | unknown
r 1.1s|     1 |     0 |  8137 |     - |simplero|   0 |2856 | 170 | 170 |   0 |  0 |   0 |   0 |      --      | 3.108407e+00 |    Inf | unknown
r 1.1s|     1 |     0 |  8157 |     - |simplero|   0 |2856 | 170 | 170 |   0 |  0 |   0 |   0 |      --      | 3.080008e+00 |    Inf | unknown
r 1.2s|     1 |     0 |  8237 |     - |simplero|   0 |2873 | 170 | 170 |   0 |  0 |   0 |   0 |      --      | 2.437761e+00 |    Inf | unknown
r 1.2s|     1 |     0 |  8269 |     - |simplero|   0 |2873 | 170 | 170 |   0 |  0 |   0 |   0 |      --      | 2.362853e+00 |    Inf | unknown
  1.2s|     1 |     0 |  8275 |     - |    14M |   0 |2873 | 170 | 170 |   0 |  0 |   0 |   0 |      --      | 2.362853e+00 |    Inf | unknown
r 1.2s|     1 |     0 |  8275 |     - |simplero|   0 |2873 | 170 | 170 |   0 |  0 |   0 |   0 |      --      | 2.360461e+00 |    Inf | unknown
 time | node  | left  |LP iter|LP it/n|mem/heur|mdpt |vars |cons |rows |cuts |sepa|confs|strbr|  dualbound   | primalbound  |  gap   | compl. 
r 1.2s|     1 |     0 |  8361 |     - |simplero|   0 |2890 | 170 | 170 |   0 |  0 |   0 |   0 |      --      | 1.781929e+00 |    Inf | unknown
r 1.2s|     1 |     0 |  8401 |     - |simplero|   0 |2890 | 170 | 170 |   0 |  0 |   0 |   0 |      --      | 1.729302e+00 |    Inf | unknown
r 1.2s|     1 |     0 |  8505 |     - |simplero|   0 |2907 | 170 | 170 |   0 |  0 |   0 |   0 |      --      | 1.180047e+00 |    Inf | unknown
r 1.2s|     1 |     0 |  8547 |     - |simplero|   0 |2907 | 170 | 170 |   0 |  0 |   0 |   0 |      --      | 1.001640e+00 |    Inf | unknown
r 1.2s|     1 |     0 |  8553 |     - |simplero|   0 |2907 | 170 | 170 |   0 |  0 |   0 |   0 |      --      | 9.961717e-01 |    Inf | unknown
r 1.2s|     1 |     0 |  8646 |     - |simplero|   0 |2924 | 170 | 170 |   0 |  0 |   0 |   0 |      --      | 5.954073e-01 |    Inf | unknown
r 1.2s|     1 |     0 |  8700 |     - |simplero|   0 |2924 | 170 | 170 |   0 |  0 |   0 |   0 |      --      | 5.078272e-01 |    Inf | unknown
r 1.2s|     1 |     0 |  8706 |     - |simplero|   0 |2924 | 170 | 170 |   0 |  0 |   0 |   0 |      --      | 5.031207e-01 |    Inf | unknown
r 1.2s|     1 |     0 |  8784 |     - |simplero|   0 |2941 | 170 | 170 |   0 |  0 |   0 |   0 |      --      | 6.588927e-02 |    Inf | unknown
r 1.2s|     1 |     0 |  8803 |     - |simplero|   0 |2941 | 170 | 170 |   0 |  0 |   0 |   0 |      --      | 0.000000e+00 |    Inf | unknown
  1.3s|     1 |     0 |  8803 |     - |    14M |   0 |2941 | 170 | 170 |   0 |  0 |   0 |   0 | 0.000000e+00 | 0.000000e+00 |   0.00%| unknown
  1.3s|     1 |     0 |  8803 |     - |    14M |   0 |2941 | 170 | 170 |   0 |  0 |   0 |   0 | 0.000000e+00 | 0.000000e+00 |   0.00%| unknown

SCIP Status        : problem is solved [optimal solution found]
Solving Time (sec) : 1.25
Solving Nodes      : 1
Primal Bound       : +0.00000000000000e+00 (52 solutions)
Dual Bound         : +0.00000000000000e+00
Gap                : 0.00 %

written transformed problem to file <results_rootrelaxation/bin018_050_013.srr.lp>
written transformed problem to file <results_rootrelaxation/bin018_050_013.srr.cip>

written solution information to file <results_rootrelaxation/bin018_050_013.srr.sol>



